(set-info :Origin "This instance was generated by: BanditFuzz-- an RL fuzzer for SMT solvers" )
(set-info :Author "Joe Scott, Fed Mora, Vijay Ganesh" )
(set-info :Contact "Joe Scott, joseph.scott@uwaterloo.ca")
(set-logic QF_BV)
(declare-const bool_0 Bool)
(declare-const bool_1 Bool)
(declare-const bool_2 Bool)
(declare-const bool_3 Bool)
(declare-const bool_4 Bool)
(declare-const bv_0 (_ BitVec 32))
(declare-const bv_1 (_ BitVec 32))
(declare-const bv_2 (_ BitVec 32))
(declare-const bv_3 (_ BitVec 32))
(declare-const bv_4 (_ BitVec 32))
(assert (bvslt (bvudiv (bvnand bv_1 #x83ab0a0f ) (bvlshr bv_1 bv_3)) (bvlshr (bvnor bv_3 bv_3) (bvsub #xc6c72e5a  #xb0d6c0ce ))))
(assert (bvult (bvshl (bvudiv bv_1 bv_3) (bvsub #xce4d089c  bv_1)) (bvand (bvxnor bv_0 #x7d833324 ) (bvashr #x9668091e  #xab3b584b ))))
(assert (bvsle (bvsrem (bvsdiv bv_1 bv_4) (bvxor bv_2 #xbe657903 )) (bvmul (bvsmod #x5730deaa  #xf4487e06 ) (bvxor #x5b1d6fc9  #xd0de5d38 ))))
(assert (=> (bvsle (bvshl #x8d19631e  bv_2) (bvor bv_0 bv_4)) (xor (bvult #x65459b5c  #x7d92d868 ) (=> bool_4 false))))
(assert (or (bvuge (bvudiv bv_0 bv_1) (bvurem bv_2 #x26b71657 )) (=> (not bool_1) (not bool_1))))
(check-sat)
(exit)
